1 100
0 40.0 50.0 0.0 0.0 0 240
2 25.0 85.0 10.0 20.0 71 191
3 22.0 75.0 10.0 30.0 30 150
4 22.0 85.0 10.0 10.0 64 184
5 20.0 80.0 10.0 40.0 151 161
6 20.0 85.0 10.0 20.0 40 160
7 18.0 75.0 10.0 20.0 96 123
8 15.0 75.0 10.0 20.0 35 155
9 15.0 80.0 10.0 10.0 101 111
10 10.0 35.0 10.0 20.0 101 111
11 10.0 40.0 10.0 30.0 123 144
12 8.0 40.0 10.0 40.0 69 79
13 8.0 45.0 10.0 20.0 32 152
14 5.0 35.0 10.0 10.0 152 162
15 5.0 45.0 10.0 10.0 35 117
16 2.0 40.0 10.0 20.0 68 78
17 0.0 40.0 10.0 20.0 59 114
18 0.0 45.0 10.0 20.0 147 180
19 44.0 5.0 10.0 20.0 79 124
20 42.0 10.0 10.0 40.0 58 115
21 42.0 15.0 10.0 10.0 111 162
22 40.0 5.0 10.0 10.0 45 165
23 40.0 15.0 10.0 40.0 94 119
24 38.0 5.0 10.0 30.0 75 85
25 38.0 15.0 10.0 10.0 128 194
26 35.0 5.0 10.0 20.0 171 181
27 95.0 30.0 10.0 30.0 58 171
28 95.0 35.0 10.0 20.0 60 93
29 92.0 30.0 10.0 10.0 55 120
30 90.0 35.0 10.0 10.0 52 112
31 88.0 30.0 10.0 10.0 75 102
32 88.0 35.0 10.0 20.0 50 170
33 87.0 30.0 10.0 10.0 116 175
34 85.0 25.0 10.0 10.0 51 85
35 85.0 35.0 10.0 30.0 62 182
36 67.0 85.0 10.0 20.0 138 169
37 65.0 85.0 10.0 40.0 43 78
38 65.0 82.0 10.0 10.0 69 189
39 62.0 80.0 10.0 30.0 85 95
40 60.0 80.0 10.0 10.0 36 74
41 60.0 85.0 10.0 30.0 87 112
42 58.0 75.0 10.0 20.0 92 121
43 55.0 80.0 10.0 10.0 33 66
44 55.0 85.0 10.0 20.0 117 168
45 55.0 82.0 10.0 10.0 74 84
46 20.0 82.0 10.0 10.0 37 72
47 18.0 80.0 10.0 10.0 98 157
48 2.0 45.0 10.0 10.0 38 109
49 42.0 5.0 10.0 10.0 64 184
50 42.0 12.0 10.0 10.0 109 128
51 72.0 35.0 10.0 30.0 71 191
52 55.0 20.0 10.0 19.0 69 126
53 25.0 30.0 10.0 3.0 25 145
54 20.0 50.0 10.0 5.0 101 111
55 55.0 60.0 10.0 16.0 127 180
56 30.0 60.0 10.0 16.0 150 160
57 50.0 35.0 10.0 19.0 130 159
58 30.0 25.0 10.0 23.0 82 139
59 15.0 10.0 10.0 20.0 172 182
60 10.0 20.0 10.0 19.0 42 162
61 15.0 60.0 10.0 17.0 137 202
62 45.0 65.0 10.0 9.0 55 106
63 65.0 35.0 10.0 3.0 62 72
64 65.0 20.0 10.0 6.0 39 108
65 45.0 30.0 10.0 17.0 53 82
66 35.0 40.0 10.0 16.0 11 43
67 41.0 37.0 10.0 16.0 134 161
68 64.0 42.0 10.0 9.0 80 90
69 40.0 60.0 10.0 21.0 144 173
70 31.0 52.0 10.0 27.0 51 61
71 35.0 69.0 10.0 23.0 172 210
72 65.0 55.0 10.0 14.0 52 107
73 63.0 65.0 10.0 8.0 27 147
74 2.0 60.0 10.0 5.0 65 118
75 20.0 20.0 10.0 8.0 151 161
76 5.0 5.0 10.0 16.0 57 172
77 60.0 12.0 10.0 31.0 85 95
78 23.0 3.0 10.0 7.0 163 173
79 8.0 56.0 10.0 27.0 90 119
80 6.0 68.0 10.0 30.0 99 109
81 47.0 47.0 10.0 13.0 190 222
82 49.0 58.0 10.0 10.0 80 121
83 27.0 43.0 10.0 9.0 14 134
84 37.0 31.0 10.0 14.0 19 139
85 57.0 29.0 10.0 18.0 106 116
86 63.0 23.0 10.0 2.0 42 162
87 21.0 24.0 10.0 28.0 77 126
88 12.0 24.0 10.0 13.0 100 110
89 24.0 58.0 10.0 19.0 67 96
90 67.0 5.0 10.0 25.0 105 177
91 37.0 47.0 10.0 6.0 74 127
92 49.0 42.0 10.0 13.0 97 217
93 53.0 43.0 10.0 14.0 15 25
94 61.0 52.0 10.0 3.0 173 208
95 57.0 48.0 10.0 23.0 50 170
96 56.0 37.0 10.0 6.0 20 140
97 55.0 54.0 10.0 26.0 87 207
98 4.0 18.0 10.0 35.0 112 157
99 26.0 52.0 10.0 9.0 14 134
100 26.0 35.0 10.0 15.0 87 97
101 31.0 67.0 10.0 3.0 200 210